certificates/rado_a7_c297_N42.cnf
c Rad2 upper bound instance: x1 + 7*x2 - x3 = 297, interval [1,42]
p cnf 42 258
1 4 42 0
-1 -4 -42 0
2 5 42 0
-2 -5 -42 0
3 6 42 0
-3 -6 -42 0
4 7 42 0
-4 -7 -42 0
5 8 42 0
-5 -8 -42 0
6 9 42 0
-6 -9 -42 0
7 10 42 0
-7 -10 -42 0
1 11 41 0
-1 -11 -41 0
8 11 42 0
-8 -11 -42 0
2 12 41 0
-2 -12 -41 0
9 12 42 0
-9 -12 -42 0
3 13 41 0
-3 -13 -41 0
10 13 42 0
-10 -13 -42 0
4 14 41 0
-4 -14 -41 0
11 14 42 0
-11 -14 -42 0
5 15 41 0
-5 -15 -41 0
12 15 42 0
-12 -15 -42 0
6 16 41 0
-6 -16 -41 0
13 16 42 0
-13 -16 -42 0
7 17 41 0
-7 -17 -41 0
14 17 42 0
-14 -17 -42 0
1 18 40 0
-1 -18 -40 0
8 18 41 0
-8 -18 -41 0
15 18 42 0
-15 -18 -42 0
2 19 40 0
-2 -19 -40 0
9 19 41 0
-9 -19 -41 0
16 19 42 0
-16 -19 -42 0
3 20 40 0
-3 -20 -40 0
10 20 41 0
-10 -20 -41 0
17 20 42 0
-17 -20 -42 0
4 21 40 0
-4 -21 -40 0
11 21 41 0
-11 -21 -41 0
18 21 42 0
-18 -21 -42 0
5 22 40 0
-5 -22 -40 0
12 22 41 0
-12 -22 -41 0
19 22 42 0
-19 -22 -42 0
6 23 40 0
-6 -23 -40 0
13 23 41 0
-13 -23 -41 0
20 23 42 0
-20 -23 -42 0
7 24 40 0
-7 -24 -40 0
14 24 41 0
-14 -24 -41 0
21 24 42 0
-21 -24 -42 0
1 25 39 0
-1 -25 -39 0
8 25 40 0
-8 -25 -40 0
15 25 41 0
-15 -25 -41 0
22 25 42 0
-22 -25 -42 0
2 26 39 0
-2 -26 -39 0
9 26 40 0
-9 -26 -40 0
16 26 41 0
-16 -26 -41 0
23 26 42 0
-23 -26 -42 0
3 27 39 0
-3 -27 -39 0
10 27 40 0
-10 -27 -40 0
17 27 41 0
-17 -27 -41 0
24 27 42 0
-24 -27 -42 0
4 28 39 0
-4 -28 -39 0
11 28 40 0
-11 -28 -40 0
18 28 41 0
-18 -28 -41 0
25 28 42 0
-25 -28 -42 0
5 29 39 0
-5 -29 -39 0
12 29 40 0
-12 -29 -40 0
19 29 41 0
-19 -29 -41 0
26 29 42 0
-26 -29 -42 0
6 30 39 0
-6 -30 -39 0
13 30 40 0
-13 -30 -40 0
20 30 41 0
-20 -30 -41 0
27 30 42 0
-27 -30 -42 0
7 31 39 0
-7 -31 -39 0
14 31 40 0
-14 -31 -40 0
21 31 41 0
-21 -31 -41 0
28 31 42 0
-28 -31 -42 0
1 32 38 0
-1 -32 -38 0
8 32 39 0
-8 -32 -39 0
15 32 40 0
-15 -32 -40 0
22 32 41 0
-22 -32 -41 0
29 32 42 0
-29 -32 -42 0
2 33 38 0
-2 -33 -38 0
9 33 39 0
-9 -33 -39 0
16 33 40 0
-16 -33 -40 0
23 33 41 0
-23 -33 -41 0
30 33 42 0
-30 -33 -42 0
3 34 38 0
-3 -34 -38 0
10 34 39 0
-10 -34 -39 0
17 34 40 0
-17 -34 -40 0
24 34 41 0
-24 -34 -41 0
31 34 42 0
-31 -34 -42 0
4 35 38 0
-4 -35 -38 0
11 35 39 0
-11 -35 -39 0
18 35 40 0
-18 -35 -40 0
25 35 41 0
-25 -35 -41 0
32 35 42 0
-32 -35 -42 0
5 36 38 0
-5 -36 -38 0
12 36 39 0
-12 -36 -39 0
19 36 40 0
-19 -36 -40 0
26 36 41 0
-26 -36 -41 0
33 36 42 0
-33 -36 -42 0
6 37 38 0
-6 -37 -38 0
13 37 39 0
-13 -37 -39 0
20 37 40 0
-20 -37 -40 0
27 37 41 0
-27 -37 -41 0
34 37 42 0
-34 -37 -42 0
7 38 0
-7 -38 0
14 38 39 0
-14 -38 -39 0
21 38 40 0
-21 -38 -40 0
28 38 41 0
-28 -38 -41 0
35 38 42 0
-35 -38 -42 0
1 37 39 0
-1 -37 -39 0
8 38 39 0
-8 -38 -39 0
15 39 0
-15 -39 0
22 39 40 0
-22 -39 -40 0
29 39 41 0
-29 -39 -41 0
36 39 42 0
-36 -39 -42 0
2 37 40 0
-2 -37 -40 0
9 38 40 0
-9 -38 -40 0
16 39 40 0
-16 -39 -40 0
23 40 0
-23 -40 0
30 40 41 0
-30 -40 -41 0
37 40 42 0
-37 -40 -42 0
3 37 41 0
-3 -37 -41 0
10 38 41 0
-10 -38 -41 0
17 39 41 0
-17 -39 -41 0
24 40 41 0
-24 -40 -41 0
31 41 0
-31 -41 0
38 41 42 0
-38 -41 -42 0
4 37 42 0
-4 -37 -42 0
11 38 42 0
-11 -38 -42 0
18 39 42 0
-18 -39 -42 0
25 40 42 0
-25 -40 -42 0
32 41 42 0
-32 -41 -42 0
39 42 0
-39 -42 0
