certificates/rado_a7_c297_N42.drat
-41 -42 0
-15 -42 0
d -15 -18 -42 0
-42 0
39 0
-15 0
12 0
18 0
-36 0
33 0
-9 0
6 0
-30 0
27 0
-3 0
41 0
-31 0
-2 0
-29 0
-17 0
-22 0
-8 0
-28 0
-23 0
-16 0
-37 0
0
